44
11
0 11 13 14 16 18 19 20 21 22 23 24 25 26 28 29 33 34 35 37 38 39 40 42 43
1 13 14 15 16 18 19 20 21 22 23 24 25 26 27 28 29 36 37 38 39 40 42
2 11 15 16 18 20 23 24 25 26 28 29 32 33 34 36 37 38 39 40 42
3 14 15 19 20 21 22 23 25 26 27 28 32 34 37 38 39 40 43
4 13 14 16 24 25 27 28 32 37 40 42
5 11 13 16 20 23 24 25 27 34 39 40 42 43
6 11 16 17 18 20 21 28 30 32 35 38 39 40 41
7 12 14 18 22 28 29 33 34 40
8 12 13 19 23 24 27 36
9 26 27 31
10 11 14 15 32 41
